Translating instance to solver...

Set parameter TimeLimit to value 28800
Gurobi Optimizer version 11.0.2 build v11.0.2rc0 (linux64 - "Ubuntu 22.04.4 LTS")

CPU model: Intel(R) Xeon(R) Gold 5120 CPU @ 2.20GHz, instruction set [SSE2|AVX|AVX2|AVX512]
Thread count: 28 physical cores, 56 logical processors, using up to 28 threads

Academic license 2463511 - for non-commercial use only - registered to lu___@cefet-rj.br
Optimize a model with 181495 rows, 83733 columns and 404996 nonzeros
Model fingerprint: 0x5a100f46
Variable types: 1 continuous, 83732 integer (83640 binary)
Coefficient statistics:
  Matrix range     [1e+00, 1e+05]
  Objective range  [3e-01, 8e-01]
  Bounds range     [1e+00, 8e+01]
  RHS range        [1e+00, 9e+01]
Presolve removed 148772 rows and 70390 columns
Presolve time: 3.43s
Presolved: 32723 rows, 13343 columns, 92847 nonzeros
Variable types: 0 continuous, 13343 integer (13252 binary)

Root relaxation: objective 1.529455e+00, 2600 iterations, 0.28 seconds (0.30 work units)
Total elapsed time = 5.21s (DegenMoves)

    Nodes    |    Current Node    |     Objective Bounds      |     Work
 Expl Unexpl |  Obj  Depth IntInf | Incumbent    BestBd   Gap | It/Node Time

     0     0    1.52946    0   67          -    1.52946      -     -    5s
     0     0    1.52946    0  123          -    1.52946      -     -    7s
     0     0    1.52946    0  112          -    1.52946      -     -    8s
     0     0    1.52946    0   44          -    1.52946      -     -   10s
     0     0    1.52946    0  113          -    1.52946      -     -   10s
     0     0    1.52946    0   47          -    1.52946      -     -   13s
     0     0    1.52946    0   49          -    1.52946      -     -   13s
     0     0    1.52946    0   60          -    1.52946      -     -   15s
     0     0    1.52946    0   76          -    1.52946      -     -   15s
     0     0    1.52946    0   52          -    1.52946      -     -   16s
     0     0    1.52946    0  140          -    1.52946      -     -   16s
H    0     0                       3.9589100    1.52946  61.4%     -   17s
     0     0    1.52946    0   37    3.95891    1.52946  61.4%     -   18s
H    0     0                       1.9794550    1.52946  22.7%     -   20s
     0     0    1.52946    0   38    1.97946    1.52946  22.7%     -   20s
     0     0    1.52946    0  106    1.97946    1.52946  22.7%     -   20s
     0     0    1.52946    0   34    1.97946    1.52946  22.7%     -   20s
     0     0    1.52946    0   75    1.97946    1.52946  22.7%     -   21s
     0     0    1.52946    0  114    1.97946    1.52946  22.7%     -   21s
     0     0    1.52946    0   29    1.97946    1.52946  22.7%     -   21s
     0     0    1.52946    0   97    1.97946    1.52946  22.7%     -   21s
     0     0    1.52946    0   52    1.97946    1.52946  22.7%     -   22s
     0     0    1.52946    0  128    1.97946    1.52946  22.7%     -   22s
     0     0    1.52946    0   43    1.97946    1.52946  22.7%     -   22s
     0     0    1.52946    0   81    1.97946    1.52946  22.7%     -   22s
     0     0    1.52946    0   55    1.97946    1.52946  22.7%     -   22s
     0     0    1.52946    0   55    1.97946    1.52946  22.7%     -   22s
     0     2    1.52946    0   54    1.97946    1.52946  22.7%     -   22s
   670   490    1.52946   21   74    1.97946    1.52946  22.7%  99.4   25s
  4786  2221    1.72658   22   73    1.97946    1.52946  22.7%   109   30s
  5119  2312    1.83535   23  124    1.97946    1.52946  22.7%   113   35s
  5767  2339 infeasible   34         1.97946    1.52946  22.7%   114   40s
  8930  2603    1.83535   30   60    1.97946    1.52946  22.7%   108   47s
 12787  3476    1.83535   32   22    1.97946    1.52946  22.7%   104   50s
 14058  4133    1.83535   39   70    1.97946    1.52946  22.7%   103   55s
 21723  7458    1.83535   26   27    1.97946    1.55092  21.6%  98.0   60s
 27605  9232 infeasible   29         1.97946    1.69665  14.3%  96.6   66s
 33108 10337    1.83535   60  101    1.97946    1.83535  7.28%  95.8   70s
 45672 11803 infeasible   42         1.97946    1.83535  7.28%  92.7   76s
 54028 12741    1.83535   42   44    1.97946    1.83535  7.28%  92.8   81s
 58038 12742    1.83535   36  106    1.97946    1.83535  7.28%  92.3   99s
 58040 12743    1.83535   56   53    1.97946    1.83535  7.28%  92.3  100s
 58048 12749    1.83535   30   50    1.97946    1.83535  7.28%  92.3  105s
 58407 12806 infeasible   35         1.97946    1.83535  7.28%  92.8  110s
 58591 12789 infeasible   37         1.97946    1.83535  7.28%  93.1  118s
 58623 12780    1.83535   38   51    1.97946    1.83535  7.28%  93.2  125s
 59966 12801    1.83535   36   53    1.97946    1.83535  7.28%  93.4  131s
 62294 12854    1.83535   45   31    1.97946    1.83535  7.28%  94.0  135s
 67970 12161 infeasible   40         1.97946    1.83535  7.28%  94.9  145s
 73123 11391    1.83535   39  114    1.97946    1.83535  7.28%  96.8  151s
 78208 10188 infeasible   68         1.97946    1.83535  7.28%  98.4  155s
 86067  8383 infeasible   48         1.97946    1.83535  7.28%   101  163s
 91540  6670 infeasible   40         1.97946    1.83535  7.28%   102  165s
 100510  5521 infeasible   61         1.97946    1.83535  7.28%   103  171s
 106393  5977 infeasible   49         1.97946    1.83535  7.28%   104  176s
 113831  5767    1.83535   48   66    1.97946    1.83535  7.28%   105  182s
 118178  6026 infeasible   74         1.97946    1.83535  7.28%   106  186s
 128157  6482 infeasible   54         1.97946    1.83535  7.28%   107  192s
 133161  6506    1.83535   56   67    1.97946    1.83535  7.28%   107  195s
 140697  6555 infeasible   66         1.97946    1.83535  7.28%   108  201s
 145685  6640 infeasible   50         1.97946    1.83535  7.28%   108  205s
 154782  6014    1.83535   57   58    1.97946    1.83535  7.28%   109  211s
 165278  5518    1.83535   69   42    1.97946    1.83535  7.28%   109  217s
 170100  4839 infeasible   53         1.97946    1.83535  7.28%   109  220s
 178951  4253 infeasible   64         1.97946    1.83535  7.28%   109  226s
 183600  3824    1.83535   69   77    1.97946    1.83535  7.28%   110  230s
 191613  2986 infeasible   64         1.97946    1.83535  7.28%   110  236s
 196754  2631 infeasible   66         1.97946    1.83535  7.28%   110  240s
 208429  1785 infeasible   63         1.97946    1.83535  7.28%   110  246s
 217441  1295 infeasible   69         1.97946    1.83535  7.28%   110  252s
 222342  1045 infeasible   65         1.97946    1.83535  7.28%   109  255s
 232976   858 infeasible   74         1.97946    1.83535  7.28%   109  262s
 238028   825    1.83535   63   73    1.97946    1.83535  7.28%   109  265s
 247763   450 infeasible   86         1.97946    1.83535  7.28%   110  271s
 254710   230    1.83535   74   40    1.97946    1.83535  7.28%   109  275s

Cutting planes:
  Learned: 45
  Gomory: 8
  Implied bound: 31
  Projected implied bound: 3
  MIR: 13
  Flow cover: 47
  Zero half: 39
  RLT: 79
  Relax-and-lift: 2

Explored 259395 nodes (28379571 simplex iterations) in 277.46 seconds (231.58 work units)
Thread count was 28 (of 56 available processors)

Solution count 2: 1.97945 3.95891 

Optimal solution found (tolerance 1.00e-04)
Best objective 1.979455000000e+00, best bound 1.979455000000e+00, gap 0.0000%

Solver Wallclock Time (for this epsilon): 277.47067284584045 s
Python wallclock Time (for this epsilon): 291.59304785728455 s


Total Elapsed Time (since program call): 4544.221650123596 s

Results:

I = 1.9794549999999997 mA
C = 41.0 points
C ~= 16.400000000000002 km^2

Minimum Epsilon for this instance = 10
Maximum Epsilon for this instance = 100

Current Epsilon = 40


Preprocessing Time (for this epsilon): 0.0164182186126709 s


Updated solution vectors:
sol_I = [-1.529455,-1.529455,-1.835346,-1.9794549999999997]
sol_C = [17.0,22.0,30.0,41.0]
sol_eps = [10,20,30,40]
sol_gap = [0.0,0.0,0.0,0.0]
